<instance format="XCSP3" type="CSP">
  <variables>
    <var id="x0"> 2 3 10 11 13 </var>
    <var id="x1"> 2 11 16 </var>
    <var id="x2"> 2 10 11 15 </var>
    <var id="x3"> 11 14 15 </var>
    <var id="x4"> 2 3 10 13 16 </var>
    <var id="x5"> 2 3 10 13 15 </var>
    <var id="x6"> 10 11 13 15 </var>
    <var id="x7"> 3 10 11 13 14 16 </var>
    <var id="x8"> 1 8 15 </var>
    <var id="x9"> 6 9 11 15 </var>
    <var id="x10"> 1 8 13 </var>
    <var id="x11"> 8 9 15 </var>
    <var id="x12"> 1 9 13 15 </var>
    <var id="x13"> 9 15 16 </var>
    <var id="x14"> 9 13 15 16 </var>
    <var id="x15"> 6 11 13 </var>
    <var id="x16"> 1..3 12 13 </var>
    <var id="x17"> 0 2 3 7 13 </var>
    <var id="x18"> 0..2 </var>
    <var id="x19"> 0 3 8 </var>
    <var id="x20"> 1 2 13 </var>
    <var id="x21"> 0 3 </var>
    <var id="x22"> 3 7 13 </var>
    <var id="x23"> 0 1 7 8 12 13 </var>
    <var id="x24"> 2 10 11 </var>
    <var id="x25"> 2 7 16 </var>
    <var id="x26"> 2 7 9 11 16 </var>
    <var id="x27"> 7 9 11 15 </var>
    <var id="x28"> 9 15 16 </var>
    <var id="x29"> 9..11 15 </var>
    <var id="x30"> 2 7 9 15 16 </var>
    <var id="x31"> 1 7 10 </var>
    <var id="x32"> 1..3 10 16 </var>
    <var id="x33"> 3 10 </var>
    <var id="x34"> 1..3 10 </var>
    <var id="x35"> 1 10..12 </var>
    <var id="x36"> 2 7 16 </var>
    <var id="x37"> 1 7 12 </var>
    <var id="x38"> 2 10..12 </var>
    <var id="x39"> 1 4 10 13 </var>
    <var id="x40"> 0 4 7 9 </var>
    <var id="x41"> 1 4 5 10 13 </var>
    <var id="x42"> 0 4 7 10 13 </var>
    <var id="x43"> 1 5 10 13 </var>
    <var id="x44"> 0 5 9 10 </var>
    <var id="x45"> 1 5 9 10 13 </var>
    <var id="x46"> 4 10 13 </var>
    <var id="x47"> 2 4 7 </var>
    <var id="x48"> 15 17 </var>
    <var id="x49"> 1 2 13 15 </var>
    <var id="x50"> 1 2 13..15 17 </var>
    <var id="x51"> 1 13 15 </var>
    <var id="x52"> 2 7 13..15 17 </var>
    <var id="x53"> 7 13 14 </var>
    <var id="x54"> 2 4 13 17 </var>
    <var id="x55"> 3 10 11 13 </var>
    <var id="x56"> 0 3 7 13 </var>
    <var id="x57"> 0 10 11 17 </var>
    <var id="x58"> 7 11 </var>
    <var id="x59"> 0 7 10 11 13 </var>
    <var id="x60"> 10 13 17 </var>
    <var id="x61"> 0 3 10 13 </var>
    <var id="x62"> 1 4 10 15 17 </var>
    <var id="x63"> 0 4 9 </var>
    <var id="x64"> 0 1 9 10 15 17 </var>
    <var id="x65"> 4 9 15 </var>
    <var id="x66"> 1 4 10 13 </var>
    <var id="x67"> 1 10 13 17 </var>
    <var id="x68"> 0 9 15 17 </var>
    <var id="x69"> 1 9 10 13 15 </var>
    <var id="x70"> 4 10 14 17 </var>
    <var id="x71"> 2 4 10 </var>
    <var id="x72"> 0 2 4 6 </var>
    <var id="x73"> 0 2 10 17 </var>
    <var id="x74"> 0 2 4 6 10 </var>
    <var id="x75"> 0 5 10 17 </var>
    <var id="x76"> 0 14 17 </var>
    <var id="x77"> 2 4 6 10 17 </var>
    <var id="x78"> 2 9 10 15 17 </var>
    <var id="x79"> 6 9 15 </var>
    <var id="x80"> 2 10 13 </var>
    <var id="x81"> 2 9 10 13 15 </var>
    <var id="x82"> 2 6 9 13 15 17 </var>
    <var id="x83"> 2 9 13 15 17 </var>
    <var id="x84"> 9 12 13 </var>
    <var id="x85"> 2 6 10 12 13 17 </var>
    <var id="x86"> 0 2 7 13 </var>
    <var id="x87"> 2 4 5 13 </var>
    <var id="x88"> 0 2 4 7 13 </var>
    <var id="x89"> 2 5 8 13 </var>
    <var id="x90"> 0 2 9 13 </var>
    <var id="x91"> 2 9 13 </var>
    <var id="x92"> 5 9 13 </var>
    <var id="x93"> 0 7..9 13 </var>
    <var id="x94"> 1 10 15 </var>
    <var id="x95"> 3 13 </var>
    <var id="x96"> 6 10 13 </var>
    <var id="x97"> 1 6 9 13 15 </var>
    <var id="x98"> 3 9 15 </var>
    <var id="x99"> 1 9 10 12 13 15 </var>
    <var id="x100"> 9 13 15 </var>
    <var id="x101"> 3 9 10 13 </var>
    <var id="x102"> 0 2 14 16 </var>
    <var id="x103"> 0 2 6 9 16 </var>
    <var id="x104"> 0 2 9 10 </var>
    <var id="x105"> 2 5 10 16 </var>
    <var id="x106"> 2 6 9 14 </var>
    <var id="x107"> 0 9 14 16 </var>
    <var id="x108"> 0 9 </var>
    <var id="x109"> 2 6 10 </var>
    <var id="x110"> 10 14 15 17 </var>
    <var id="x111"> 2 13 14 </var>
    <var id="x112"> 2 9 11 </var>
    <var id="x113"> 2 10 13 </var>
    <var id="x114"> 2 10 13 17 </var>
    <var id="x115"> 9 10 15 17 </var>
    <var id="x116"> 2 9 13..15 17 </var>
    <var id="x117"> 9..11 13 14 </var>
    <var id="x118"> 1 4 15 17 </var>
    <var id="x119"> 4 9 11 15 </var>
    <var id="x120"> 4 11 </var>
    <var id="x121"> 1 12 17 </var>
    <var id="x122"> 9 11 </var>
    <var id="x123"> 1 9 12 </var>
    <var id="x124"> 4 11 12 17 </var>
    <var id="x125"> 1 4 7 8 14 </var>
    <var id="x126"> 1 3 4 13 </var>
    <var id="x127"> 4 7 13 </var>
    <var id="x128"> 1 8 13 </var>
    <var id="x129"> 1 3 9 13 </var>
    <var id="x130"> 7 9 13 14 </var>
    <var id="x131"> 3 7 9 13 14 </var>
    <var id="x132"> 1 7..9 13 </var>
    <var id="x133"> 2 3 11 </var>
    <var id="x134"> 0 2 11 17 </var>
    <var id="x135"> 5 11 14 </var>
    <var id="x136"> 0 2 11 </var>
    <var id="x137"> 0 3 5 17 </var>
    <var id="x138"> 2 14 17 </var>
    <var id="x139"> 2 14 16 17 </var>
    <var id="x140"> 3 11 14 16 </var>
  </variables>
  <constraints>
    <group>
      <allDifferent> %... </allDifferent>
      <args> x0 x1 x2 x3 x4 x5 x6 x7 </args>
      <args> x8 x9 x10 x11 x12 x13 x14 x15 </args>
      <args> x16 x17 x18 x19 x20 x21 x22 x23 </args>
      <args> x24 x25 x26 x27 x28 x29 x30 </args>
      <args> x31 x32 x33 x34 x35 x36 x37 x38 </args>
      <args> x39 x40 x41 x42 x43 x44 x45 x46 </args>
      <args> x47 x48 x49 x50 x51 x52 x53 x54 </args>
      <args> x55 x56 x57 x58 x59 x60 x61 </args>
      <args> x62 x63 x64 x65 x66 x67 x68 x69 </args>
      <args> x70 x71 x72 x73 x74 x75 x76 x77 </args>
      <args> x78 x79 x80 x81 x82 x83 x84 x85 </args>
      <args> x86 x87 x88 x89 x90 x91 x92 x93 </args>
      <args> x94 x95 x96 x97 x98 x99 x100 x101 </args>
      <args> x102 x103 x104 x105 x106 x107 x108 x109 </args>
      <args> x110 x111 x112 x113 x114 x115 x116 x117 </args>
      <args> x118 x119 x120 x121 x122 x123 x124 </args>
      <args> x125 x126 x127 x128 x129 x130 x131 x132 </args>
      <args> x133 x134 x135 x136 x137 x138 x139 x140 </args>
      <args> x8 x31 x62 x70 x94 x110 x118 x125 </args>
      <args> x0 x16 x24 x39 x55 x71 x126 x133 </args>
      <args> x17 x25 x56 x86 x95 x102 x111 </args>
      <args> x1 x26 x40 x47 x63 x72 x103 x112 </args>
      <args> x2 x18 x57 x64 x73 x78 x104 x134 </args>
      <args> x3 x9 x27 x58 x65 x79 x119 x135 </args>
      <args> x4 x32 x41 x66 x80 x87 x105 x113 </args>
      <args> x42 x59 x74 x88 x96 x120 x127 x136 </args>
      <args> x10 x43 x60 x67 x89 x114 x121 x128 </args>
      <args> x11 x19 x33 x44 x48 x75 x115 x137 </args>
      <args> x5 x12 x34 x49 x61 x81 x90 x129 </args>
      <args> x20 x50 x82 x91 x97 x106 x116 x138 </args>
      <args> x13 x21 x28 x68 x76 x98 x107 </args>
      <args> x6 x29 x35 x45 x51 x69 x92 x99 </args>
      <args> x14 x30 x36 x52 x83 x100 x130 x139 </args>
      <args> x7 x22 x53 x101 x117 x122 x131 x140 </args>
      <args> x23 x37 x84 x93 x108 x123 x132 </args>
      <args> x15 x38 x46 x54 x77 x85 x109 x124 </args>
    </group>
  </constraints>
</instance>

